p edge 50 106 5
v 11 3 5 14 21 23 24 28 33 41 47 50
v 12 2 6 8 9 20 29 30 34 37 42 48 49
v 9 7 12 19 27 35 38 39 40 44
v 8 4 15 16 17 18 22 32 43
v 10 1 10 11 13 25 26 31 36 45 46
e 1 34
e 1 35
e 1 36
e 1 39
e 1 47
e 2 17
e 2 24
e 3 31
e 4 5
e 4 11
e 4 24
e 4 30
e 5 21
e 5 27
e 5 32
e 5 46
e 6 11
e 6 20
e 6 40
e 7 14
e 7 49
e 8 9
e 8 10
e 8 31
e 8 42
e 9 15
e 9 16
e 9 21
e 9 22
e 9 29
e 9 50
e 11 18
e 11 25
e 11 35
e 11 37
e 12 40
e 13 20
e 13 28
e 13 30
e 13 47
e 13 48
e 14 34
e 14 36
e 14 40
e 14 43
e 14 46
e 14 49
e 15 22
e 15 45
e 15 46
e 17 24
e 17 28
e 17 32
e 17 40
e 17 49
e 18 21
e 18 29
e 18 39
e 19 27
e 19 40
e 19 46
e 20 26
e 20 28
e 20 40
e 20 41
e 20 48
e 21 23
e 21 31
e 21 34
e 21 45
e 21 50
e 22 29
e 22 31
e 22 38
e 22 39
e 23 31
e 23 36
e 23 42
e 24 28
e 24 48
e 25 31
e 25 35
e 25 40
e 25 45
e 26 49
e 27 48
e 28 36
e 29 33
e 29 42
e 29 46
e 30 32
e 31 39
e 31 41
e 32 35
e 33 40
e 34 46
e 35 37
e 36 42
e 36 50
e 38 40
e 38 47
e 39 49
e 42 46
e 42 47
e 43 47
e 45 47
